conditionSynthesis/results/repairExamples_all_1h_G1/boundaries/crafted/loop_with_assert_realizable.boundaries.out
(
(define-fun Condition_0 ((vg_0 Int) (vfind_condition_0 Int) (mainv%_3_0 Int) (mainv%_5_0 Int) (mainv%.0.i1_0 Int)) Bool false)
)
